N = 13;
H = 5;
T = 2;

avail = array3d(1..N, 1..H, 1..T, [10, 9, 8, 0, 2, 3, 8, 6, 10, 5, 8, 6, 3, 5, 7, 0, 3, 3, 7, 8, 7, 0, 5, 1, 10, 2, 10, 10, 10, 8, 1, 7, 3, 0, 10, 8, 4, 8, 9, 1, 1, 1, 4, 8, 4, 3, 3, 10, 5, 4, 1, 6, 1, 4, 4, 0, 7, 9, 1, 6, 2, 9, 3, 9, 7, 0, 8, 8, 8, 6, 9, 6, 6, 1, 8, 7, 7, 4, 6, 8, 2, 7, 7, 5, 6, 4, 1, 9, 3, 4, 5, 8, 2, 9, 6, 1, 4, 0, 10, 1, 5, 9, 9, 7, 1, 5, 3, 10, 0, 2, 5, 1, 9, 1, 3, 10, 2, 8, 8, 9, 6, 4, 8, 5, 4, 5, 4, 5, 6, 1]);

r = array2d(1..H, 1..T, [1, 0, 5, 6, 3, 5, 4, 7, 2, 4]);
